(set-info :smt-lib-version 2.6)
(set-logic QF_ANIA)
(set-info :source |
Generated by the tool Ultimate Automizer [1,2] which implements
an automata theoretic approach [3] to software verification.

This SMT script belongs to a set of SMT scripts that was generated by
applying Ultimate Automizer to benchmarks [4] from the SV-COMP 2023 [5,6].
This script may not contain all SMT commands that Ultimate Automizer
issued. In order to meet the restrictions for SMT-COMP benchmarks 
we dropped the commands for getting values (resp. models), 
unsatisfiable cores, and interpolants.

2023-03-21, Matthias Heizmann (heizmann@informatik.uni-freiburg.de)

[1] https://ultimate.informatik.uni-freiburg.de/automizer/
[2] Matthias Heizmann, Max Barth, Daniel Dietsch, Leonard Fichtner,
     Jochen Hoenicke, Dominik Klumpp, Mehdi Naouar, Tanja Schindler,
     Frank Schüssele, Andreas Podelski: Ultimate Automizer and the
     CommuHash Normal Form (Competition Contribution). TACAS 2023
[3] Matthias Heizmann, Jochen Hoenicke, Andreas Podelski: Software Model
     Checking for People Who Love Automata. CAV 2013
[4] https://github.com/sosy-lab/sv-benchmarks
[5] Dirk Beyer: Competition on Software Verification and
     Witness Validation: SV-COMP 2023.  TACAS 2023
[6] https://sv-comp.sosy-lab.org/2023/
|)
(set-info :license "https://creativecommons.org/licenses/by/4.0/")
(set-info :category "industrial")
(set-info :status unknown)
(declare-fun |#memory_int_-1| () (Array Int (Array Int Int)))
(declare-fun |ULTIMATE.start_main_~#C~0#1.base_1| () Int)
(declare-fun |ULTIMATE.start_main_~M~0#1_1| () Int)
(declare-fun |ULTIMATE.start_main_~i~0#1_1| () Int)
(declare-fun |ULTIMATE.start_main_~#B~0#1.base_1| () Int)
(declare-fun |ULTIMATE.start_main_~#A~0#1.offset_1| () Int)
(declare-fun |ULTIMATE.start_main_~#C~0#1.offset_1| () Int)
(declare-fun |ULTIMATE.start_main_~#B~0#1.offset_1| () Int)
(declare-fun |ULTIMATE.start_main_~#A~0#1.base_1| () Int)
(declare-fun |#memory_int_2| () (Array Int (Array Int Int)))
(declare-fun |ULTIMATE.start_main_#t~mem4#1_2| () Int)
(declare-fun v_ArrVal_272_fresh_1 () (Array Int Int))
(declare-fun |v_ULTIMATE.start_main_#t~nondet3#1_41_fresh_1| () Int)
(declare-fun v_ArrVal_271_fresh_1 () Int)
(declare-fun |ULTIMATE.start_main_~i~0#1_4| () Int)
(declare-fun |#memory_int_5| () (Array Int (Array Int Int)))
(declare-fun |ULTIMATE.start_main_#t~mem4#1_5| () Int)
(declare-fun |v_ULTIMATE.start_main_#t~nondet3#1_42_fresh_1| () Int)
(declare-fun v_ArrVal_273_fresh_1 () Int)
(declare-fun v_ArrVal_274_fresh_1 () (Array Int Int))
(declare-fun |ULTIMATE.start_main_~i~0#1_7| () Int)
(declare-fun |#memory_int_8| () (Array Int (Array Int Int)))
(declare-fun |ULTIMATE.start_main_#t~mem4#1_8| () Int)
(declare-fun |v_ULTIMATE.start_main_#t~nondet3#1_43_fresh_1| () Int)
(declare-fun v_ArrVal_275_fresh_1 () Int)
(declare-fun v_ArrVal_276_fresh_1 () (Array Int Int))
(declare-fun |ULTIMATE.start_main_~i~0#1_10| () Int)
(declare-fun |#memory_int_11| () (Array Int (Array Int Int)))
(declare-fun |ULTIMATE.start_main_#t~mem4#1_11| () Int)
(declare-fun |v_ULTIMATE.start_main_#t~nondet3#1_44_fresh_1| () Int)
(declare-fun v_ArrVal_277_fresh_1 () Int)
(declare-fun v_ArrVal_278_fresh_1 () (Array Int Int))
(declare-fun |ULTIMATE.start_main_~i~0#1_13| () Int)
(declare-fun |ULTIMATE.start_main_~i~0#1_15| () Int)
(declare-fun |ULTIMATE.start_main_#t~mem7#1_16| () Int)
(declare-fun |#memory_int_16| () (Array Int (Array Int Int)))
(declare-fun v_ArrVal_279_fresh_1 () Int)
(declare-fun |v_ULTIMATE.start_main_#t~nondet6#1_40_fresh_1| () Int)
(declare-fun v_ArrVal_280_fresh_1 () (Array Int Int))
(declare-fun |ULTIMATE.start_main_~i~0#1_18| () Int)
(declare-fun |ULTIMATE.start_main_#t~mem7#1_19| () Int)
(declare-fun |#memory_int_19| () (Array Int (Array Int Int)))
(declare-fun |v_ULTIMATE.start_main_#t~nondet6#1_41_fresh_1| () Int)
(declare-fun v_ArrVal_282_fresh_1 () (Array Int Int))
(declare-fun v_ArrVal_281_fresh_1 () Int)
(declare-fun |ULTIMATE.start_main_~i~0#1_21| () Int)
(declare-fun |ULTIMATE.start_main_#t~mem7#1_22| () Int)
(declare-fun |#memory_int_22| () (Array Int (Array Int Int)))
(declare-fun |v_ULTIMATE.start_main_#t~nondet6#1_42_fresh_1| () Int)
(declare-fun v_ArrVal_283_fresh_1 () Int)
(declare-fun v_ArrVal_284_fresh_1 () (Array Int Int))
(declare-fun |ULTIMATE.start_main_~i~0#1_24| () Int)
(declare-fun |ULTIMATE.start_main_~i~0#1_26| () Int)
(declare-fun |#memory_int_27| () (Array Int (Array Int Int)))
(declare-fun v_ArrVal_285_fresh_1 () Int)
(declare-fun v_ArrVal_286_fresh_1 () (Array Int Int))
(declare-fun |ULTIMATE.start_main_~i~0#1_28| () Int)
(declare-fun |#memory_int_29| () (Array Int (Array Int Int)))
(declare-fun v_ArrVal_287_fresh_1 () Int)
(declare-fun v_ArrVal_288_fresh_1 () (Array Int Int))
(declare-fun |ULTIMATE.start_main_~i~0#1_30| () Int)
(declare-fun |#memory_int_31| () (Array Int (Array Int Int)))
(declare-fun v_ArrVal_289_fresh_1 () Int)
(declare-fun v_ArrVal_290_fresh_1 () (Array Int Int))
(declare-fun |ULTIMATE.start_main_~i~0#1_32| () Int)
(declare-fun |ULTIMATE.start_main_~i~0#1_34| () Int)
(declare-fun |ULTIMATE.start_main_#t~mem13#1_35| () Int)
(declare-fun |ULTIMATE.start_main_#t~mem14#1_35| () Int)
(declare-fun |ULTIMATE.start___VERIFIER_assert_#in~cond#1_35| () Int)
(declare-fun |ULTIMATE.start___VERIFIER_assert_~cond#1_35| () Int)
(declare-fun |ULTIMATE.start_main_#t~mem12#1_35| () Int)
(declare-fun |ULTIMATE.start_main_~i~0#1_38| () Int)
(declare-fun |ULTIMATE.start_main_#t~mem13#1_39| () Int)
(declare-fun |ULTIMATE.start_main_#t~mem14#1_39| () Int)
(declare-fun |ULTIMATE.start___VERIFIER_assert_#in~cond#1_39| () Int)
(declare-fun |ULTIMATE.start___VERIFIER_assert_~cond#1_39| () Int)
(declare-fun |ULTIMATE.start_main_#t~mem12#1_39| () Int)
(declare-fun |ULTIMATE.start_main_~i~0#1_42| () Int)
(declare-fun |ULTIMATE.start_main_#t~mem13#1_43| () Int)
(declare-fun |ULTIMATE.start_main_#t~mem14#1_43| () Int)
(declare-fun |ULTIMATE.start___VERIFIER_assert_#in~cond#1_43| () Int)
(declare-fun |ULTIMATE.start___VERIFIER_assert_~cond#1_43| () Int)
(declare-fun |ULTIMATE.start_main_#t~mem12#1_43| () Int)
(declare-fun |ULTIMATE.start_main_~i~0#1_46| () Int)
(assert (not false))
(assert (<= |v_ULTIMATE.start_main_#t~nondet3#1_42_fresh_1| 2147483647))
(assert (<= |ULTIMATE.start_main_#t~mem4#1_5| (select (select |#memory_int_5| |ULTIMATE.start_main_~#A~0#1.base_1|) (+ |ULTIMATE.start_main_~#A~0#1.offset_1| (* (mod |ULTIMATE.start_main_~i~0#1_4| 4294967296) 4)))))
(assert (>= |ULTIMATE.start_main_#t~mem4#1_5| (select (select |#memory_int_5| |ULTIMATE.start_main_~#A~0#1.base_1|) (+ |ULTIMATE.start_main_~#A~0#1.offset_1| (* (mod |ULTIMATE.start_main_~i~0#1_4| 4294967296) 4)))))
(assert (= v_ArrVal_274_fresh_1 (store (select |#memory_int_2| |ULTIMATE.start_main_~#A~0#1.base_1|) (+ |ULTIMATE.start_main_~#A~0#1.offset_1| (* (mod |ULTIMATE.start_main_~i~0#1_4| 4294967296) 4)) v_ArrVal_273_fresh_1)))
(assert (= (store |#memory_int_2| |ULTIMATE.start_main_~#A~0#1.base_1| v_ArrVal_274_fresh_1) |#memory_int_5|))
(assert (<= 0 (+ |v_ULTIMATE.start_main_#t~nondet3#1_42_fresh_1| 2147483648)))
(assert (<= v_ArrVal_273_fresh_1 |v_ULTIMATE.start_main_#t~nondet3#1_42_fresh_1|))
(assert (>= v_ArrVal_273_fresh_1 |v_ULTIMATE.start_main_#t~nondet3#1_42_fresh_1|))
(assert (< (mod |ULTIMATE.start_main_~i~0#1_4| 4294967296) (mod |ULTIMATE.start_main_~M~0#1_1| 4294967296)))
(assert (<= |ULTIMATE.start_main_#t~mem4#1_5| 1000000))
(assert (<= |ULTIMATE.start_main_~i~0#1_7| (+ |ULTIMATE.start_main_~i~0#1_4| 1)))
(assert (>= |ULTIMATE.start_main_~i~0#1_7| (+ |ULTIMATE.start_main_~i~0#1_4| 1)))
(assert (<= |ULTIMATE.start_main_~i~0#1_18| (+ |ULTIMATE.start_main_~i~0#1_15| 1)))
(assert (>= |ULTIMATE.start_main_~i~0#1_18| (+ |ULTIMATE.start_main_~i~0#1_15| 1)))
(assert (= (store |#memory_int_16| |ULTIMATE.start_main_~#B~0#1.base_1| v_ArrVal_282_fresh_1) |#memory_int_19|))
(assert (<= |v_ULTIMATE.start_main_#t~nondet6#1_41_fresh_1| 2147483647))
(assert (< (mod |ULTIMATE.start_main_~i~0#1_18| 4294967296) (mod |ULTIMATE.start_main_~M~0#1_1| 4294967296)))
(assert (= v_ArrVal_282_fresh_1 (store (select |#memory_int_16| |ULTIMATE.start_main_~#B~0#1.base_1|) (+ (* (mod |ULTIMATE.start_main_~i~0#1_18| 4294967296) 4) |ULTIMATE.start_main_~#B~0#1.offset_1|) v_ArrVal_281_fresh_1)))
(assert (<= 0 (+ |v_ULTIMATE.start_main_#t~nondet6#1_41_fresh_1| 2147483648)))
(assert (<= v_ArrVal_281_fresh_1 |v_ULTIMATE.start_main_#t~nondet6#1_41_fresh_1|))
(assert (>= v_ArrVal_281_fresh_1 |v_ULTIMATE.start_main_#t~nondet6#1_41_fresh_1|))
(assert (<= |ULTIMATE.start_main_#t~mem7#1_19| (select (select |#memory_int_19| |ULTIMATE.start_main_~#B~0#1.base_1|) (+ (* (mod |ULTIMATE.start_main_~i~0#1_18| 4294967296) 4) |ULTIMATE.start_main_~#B~0#1.offset_1|))))
(assert (>= |ULTIMATE.start_main_#t~mem7#1_19| (select (select |#memory_int_19| |ULTIMATE.start_main_~#B~0#1.base_1|) (+ (* (mod |ULTIMATE.start_main_~i~0#1_18| 4294967296) 4) |ULTIMATE.start_main_~#B~0#1.offset_1|))))
(assert (<= |ULTIMATE.start_main_~i~0#1_4| (+ |ULTIMATE.start_main_~i~0#1_1| 1)))
(assert (>= |ULTIMATE.start_main_~i~0#1_4| (+ |ULTIMATE.start_main_~i~0#1_1| 1)))
(assert (<= |ULTIMATE.start_main_#t~mem7#1_19| 1000000))
(assert (<= (+ |ULTIMATE.start_main_~i~0#1_34| 1) |ULTIMATE.start_main_~i~0#1_38|))
(assert (>= (+ |ULTIMATE.start_main_~i~0#1_34| 1) |ULTIMATE.start_main_~i~0#1_38|))
(assert (<= (select (select |#memory_int_31| |ULTIMATE.start_main_~#B~0#1.base_1|) (+ (* (mod |ULTIMATE.start_main_~i~0#1_38| 4294967296) 4) |ULTIMATE.start_main_~#B~0#1.offset_1|)) |ULTIMATE.start_main_#t~mem13#1_39|))
(assert (>= (select (select |#memory_int_31| |ULTIMATE.start_main_~#B~0#1.base_1|) (+ (* (mod |ULTIMATE.start_main_~i~0#1_38| 4294967296) 4) |ULTIMATE.start_main_~#B~0#1.offset_1|)) |ULTIMATE.start_main_#t~mem13#1_39|))
(assert (< (mod |ULTIMATE.start_main_~i~0#1_38| 4294967296) (mod |ULTIMATE.start_main_~M~0#1_1| 4294967296)))
(assert (<= |ULTIMATE.start_main_#t~mem14#1_39| (select (select |#memory_int_31| |ULTIMATE.start_main_~#C~0#1.base_1|) (+ |ULTIMATE.start_main_~#C~0#1.offset_1| (* (mod |ULTIMATE.start_main_~i~0#1_38| 4294967296) 4)))))
(assert (>= |ULTIMATE.start_main_#t~mem14#1_39| (select (select |#memory_int_31| |ULTIMATE.start_main_~#C~0#1.base_1|) (+ |ULTIMATE.start_main_~#C~0#1.offset_1| (* (mod |ULTIMATE.start_main_~i~0#1_38| 4294967296) 4)))))
(assert (<= |ULTIMATE.start___VERIFIER_assert_#in~cond#1_39| (ite (= (+ |ULTIMATE.start_main_#t~mem12#1_39| |ULTIMATE.start_main_#t~mem13#1_39|) |ULTIMATE.start_main_#t~mem14#1_39|) 1 0)))
(assert (>= |ULTIMATE.start___VERIFIER_assert_#in~cond#1_39| (ite (= (+ |ULTIMATE.start_main_#t~mem12#1_39| |ULTIMATE.start_main_#t~mem13#1_39|) |ULTIMATE.start_main_#t~mem14#1_39|) 1 0)))
(assert (<= |ULTIMATE.start_main_#t~mem12#1_39| (select (select |#memory_int_31| |ULTIMATE.start_main_~#A~0#1.base_1|) (+ |ULTIMATE.start_main_~#A~0#1.offset_1| (* (mod |ULTIMATE.start_main_~i~0#1_38| 4294967296) 4)))))
(assert (>= |ULTIMATE.start_main_#t~mem12#1_39| (select (select |#memory_int_31| |ULTIMATE.start_main_~#A~0#1.base_1|) (+ |ULTIMATE.start_main_~#A~0#1.offset_1| (* (mod |ULTIMATE.start_main_~i~0#1_38| 4294967296) 4)))))
(assert (<= |ULTIMATE.start___VERIFIER_assert_~cond#1_39| |ULTIMATE.start___VERIFIER_assert_#in~cond#1_39|))
(assert (>= |ULTIMATE.start___VERIFIER_assert_~cond#1_39| |ULTIMATE.start___VERIFIER_assert_#in~cond#1_39|))
(assert (= (store |#memory_int_5| |ULTIMATE.start_main_~#A~0#1.base_1| v_ArrVal_276_fresh_1) |#memory_int_8|))
(assert (<= v_ArrVal_275_fresh_1 |v_ULTIMATE.start_main_#t~nondet3#1_43_fresh_1|))
(assert (>= v_ArrVal_275_fresh_1 |v_ULTIMATE.start_main_#t~nondet3#1_43_fresh_1|))
(assert (= v_ArrVal_276_fresh_1 (store (select |#memory_int_5| |ULTIMATE.start_main_~#A~0#1.base_1|) (+ |ULTIMATE.start_main_~#A~0#1.offset_1| (* (mod |ULTIMATE.start_main_~i~0#1_7| 4294967296) 4)) v_ArrVal_275_fresh_1)))
(assert (<= |ULTIMATE.start_main_#t~mem4#1_8| (select (select |#memory_int_8| |ULTIMATE.start_main_~#A~0#1.base_1|) (+ |ULTIMATE.start_main_~#A~0#1.offset_1| (* (mod |ULTIMATE.start_main_~i~0#1_7| 4294967296) 4)))))
(assert (>= |ULTIMATE.start_main_#t~mem4#1_8| (select (select |#memory_int_8| |ULTIMATE.start_main_~#A~0#1.base_1|) (+ |ULTIMATE.start_main_~#A~0#1.offset_1| (* (mod |ULTIMATE.start_main_~i~0#1_7| 4294967296) 4)))))
(assert (<= |v_ULTIMATE.start_main_#t~nondet3#1_43_fresh_1| 2147483647))
(assert (<= 0 (+ |v_ULTIMATE.start_main_#t~nondet3#1_43_fresh_1| 2147483648)))
(assert (< (mod |ULTIMATE.start_main_~i~0#1_7| 4294967296) (mod |ULTIMATE.start_main_~M~0#1_1| 4294967296)))
(assert (not (= |ULTIMATE.start___VERIFIER_assert_~cond#1_39| 0)))
(assert (<= |ULTIMATE.start_main_#t~mem4#1_8| 1000000))
(assert (<= v_ArrVal_287_fresh_1 (let ((.cse0 (* 4 (mod |ULTIMATE.start_main_~i~0#1_28| 4294967296)))) (+ (select (select |#memory_int_27| |ULTIMATE.start_main_~#A~0#1.base_1|) (+ |ULTIMATE.start_main_~#A~0#1.offset_1| .cse0)) (select (select |#memory_int_27| |ULTIMATE.start_main_~#B~0#1.base_1|) (+ .cse0 |ULTIMATE.start_main_~#B~0#1.offset_1|))))))
(assert (>= v_ArrVal_287_fresh_1 (let ((.cse0 (* 4 (mod |ULTIMATE.start_main_~i~0#1_28| 4294967296)))) (+ (select (select |#memory_int_27| |ULTIMATE.start_main_~#A~0#1.base_1|) (+ |ULTIMATE.start_main_~#A~0#1.offset_1| .cse0)) (select (select |#memory_int_27| |ULTIMATE.start_main_~#B~0#1.base_1|) (+ .cse0 |ULTIMATE.start_main_~#B~0#1.offset_1|))))))
(assert (< (mod |ULTIMATE.start_main_~i~0#1_28| 4294967296) (mod |ULTIMATE.start_main_~M~0#1_1| 4294967296)))
(assert (= (store |#memory_int_27| |ULTIMATE.start_main_~#C~0#1.base_1| v_ArrVal_288_fresh_1) |#memory_int_29|))
(assert (= v_ArrVal_288_fresh_1 (store (select |#memory_int_27| |ULTIMATE.start_main_~#C~0#1.base_1|) (+ (* 4 (mod |ULTIMATE.start_main_~i~0#1_28| 4294967296)) |ULTIMATE.start_main_~#C~0#1.offset_1|) v_ArrVal_287_fresh_1)))
(assert (<= |ULTIMATE.start_main_~i~0#1_30| (+ |ULTIMATE.start_main_~i~0#1_28| 1)))
(assert (>= |ULTIMATE.start_main_~i~0#1_30| (+ |ULTIMATE.start_main_~i~0#1_28| 1)))
(assert (<= |ULTIMATE.start_main_#t~mem7#1_16| 1000000))
(assert (<= |ULTIMATE.start_main_#t~mem4#1_2| 1000000))
(assert (not (= |ULTIMATE.start___VERIFIER_assert_~cond#1_35| 0)))
(assert (<= |ULTIMATE.start_main_~i~0#1_21| (+ |ULTIMATE.start_main_~i~0#1_18| 1)))
(assert (>= |ULTIMATE.start_main_~i~0#1_21| (+ |ULTIMATE.start_main_~i~0#1_18| 1)))
(assert (= (store |#memory_int_19| |ULTIMATE.start_main_~#B~0#1.base_1| v_ArrVal_284_fresh_1) |#memory_int_22|))
(assert (< (mod |ULTIMATE.start_main_~i~0#1_21| 4294967296) (mod |ULTIMATE.start_main_~M~0#1_1| 4294967296)))
(assert (<= |v_ULTIMATE.start_main_#t~nondet6#1_42_fresh_1| 2147483647))
(assert (<= v_ArrVal_283_fresh_1 |v_ULTIMATE.start_main_#t~nondet6#1_42_fresh_1|))
(assert (>= v_ArrVal_283_fresh_1 |v_ULTIMATE.start_main_#t~nondet6#1_42_fresh_1|))
(assert (= v_ArrVal_284_fresh_1 (store (select |#memory_int_19| |ULTIMATE.start_main_~#B~0#1.base_1|) (+ (* (mod |ULTIMATE.start_main_~i~0#1_21| 4294967296) 4) |ULTIMATE.start_main_~#B~0#1.offset_1|) v_ArrVal_283_fresh_1)))
(assert (<= 0 (+ |v_ULTIMATE.start_main_#t~nondet6#1_42_fresh_1| 2147483648)))
(assert (<= |ULTIMATE.start_main_#t~mem7#1_22| (select (select |#memory_int_22| |ULTIMATE.start_main_~#B~0#1.base_1|) (+ (* (mod |ULTIMATE.start_main_~i~0#1_21| 4294967296) 4) |ULTIMATE.start_main_~#B~0#1.offset_1|))))
(assert (>= |ULTIMATE.start_main_#t~mem7#1_22| (select (select |#memory_int_22| |ULTIMATE.start_main_~#B~0#1.base_1|) (+ (* (mod |ULTIMATE.start_main_~i~0#1_21| 4294967296) 4) |ULTIMATE.start_main_~#B~0#1.offset_1|))))
(assert (<= |ULTIMATE.start_main_~i~0#1_10| (+ |ULTIMATE.start_main_~i~0#1_7| 1)))
(assert (>= |ULTIMATE.start_main_~i~0#1_10| (+ |ULTIMATE.start_main_~i~0#1_7| 1)))
(assert (<= (+ |ULTIMATE.start_main_~i~0#1_38| 1) |ULTIMATE.start_main_~i~0#1_42|))
(assert (>= (+ |ULTIMATE.start_main_~i~0#1_38| 1) |ULTIMATE.start_main_~i~0#1_42|))
(assert (= v_ArrVal_278_fresh_1 (store (select |#memory_int_8| |ULTIMATE.start_main_~#A~0#1.base_1|) (+ |ULTIMATE.start_main_~#A~0#1.offset_1| (* (mod |ULTIMATE.start_main_~i~0#1_10| 4294967296) 4)) v_ArrVal_277_fresh_1)))
(assert (= (store |#memory_int_8| |ULTIMATE.start_main_~#A~0#1.base_1| v_ArrVal_278_fresh_1) |#memory_int_11|))
(assert (<= |ULTIMATE.start_main_#t~mem4#1_11| (select (select |#memory_int_11| |ULTIMATE.start_main_~#A~0#1.base_1|) (+ |ULTIMATE.start_main_~#A~0#1.offset_1| (* (mod |ULTIMATE.start_main_~i~0#1_10| 4294967296) 4)))))
(assert (>= |ULTIMATE.start_main_#t~mem4#1_11| (select (select |#memory_int_11| |ULTIMATE.start_main_~#A~0#1.base_1|) (+ |ULTIMATE.start_main_~#A~0#1.offset_1| (* (mod |ULTIMATE.start_main_~i~0#1_10| 4294967296) 4)))))
(assert (<= v_ArrVal_277_fresh_1 |v_ULTIMATE.start_main_#t~nondet3#1_44_fresh_1|))
(assert (>= v_ArrVal_277_fresh_1 |v_ULTIMATE.start_main_#t~nondet3#1_44_fresh_1|))
(assert (<= 0 (+ |v_ULTIMATE.start_main_#t~nondet3#1_44_fresh_1| 2147483648)))
(assert (<= |v_ULTIMATE.start_main_#t~nondet3#1_44_fresh_1| 2147483647))
(assert (< (mod |ULTIMATE.start_main_~i~0#1_10| 4294967296) (mod |ULTIMATE.start_main_~M~0#1_1| 4294967296)))
(assert (<= (select (select |#memory_int_31| |ULTIMATE.start_main_~#B~0#1.base_1|) (+ (* (mod |ULTIMATE.start_main_~i~0#1_42| 4294967296) 4) |ULTIMATE.start_main_~#B~0#1.offset_1|)) |ULTIMATE.start_main_#t~mem13#1_43|))
(assert (>= (select (select |#memory_int_31| |ULTIMATE.start_main_~#B~0#1.base_1|) (+ (* (mod |ULTIMATE.start_main_~i~0#1_42| 4294967296) 4) |ULTIMATE.start_main_~#B~0#1.offset_1|)) |ULTIMATE.start_main_#t~mem13#1_43|))
(assert (< (mod |ULTIMATE.start_main_~i~0#1_42| 4294967296) (mod |ULTIMATE.start_main_~M~0#1_1| 4294967296)))
(assert (<= |ULTIMATE.start_main_#t~mem14#1_43| (select (select |#memory_int_31| |ULTIMATE.start_main_~#C~0#1.base_1|) (+ |ULTIMATE.start_main_~#C~0#1.offset_1| (* (mod |ULTIMATE.start_main_~i~0#1_42| 4294967296) 4)))))
(assert (>= |ULTIMATE.start_main_#t~mem14#1_43| (select (select |#memory_int_31| |ULTIMATE.start_main_~#C~0#1.base_1|) (+ |ULTIMATE.start_main_~#C~0#1.offset_1| (* (mod |ULTIMATE.start_main_~i~0#1_42| 4294967296) 4)))))
(assert (<= |ULTIMATE.start___VERIFIER_assert_#in~cond#1_43| (ite (= (+ |ULTIMATE.start_main_#t~mem12#1_43| |ULTIMATE.start_main_#t~mem13#1_43|) |ULTIMATE.start_main_#t~mem14#1_43|) 1 0)))
(assert (>= |ULTIMATE.start___VERIFIER_assert_#in~cond#1_43| (ite (= (+ |ULTIMATE.start_main_#t~mem12#1_43| |ULTIMATE.start_main_#t~mem13#1_43|) |ULTIMATE.start_main_#t~mem14#1_43|) 1 0)))
(assert (<= |ULTIMATE.start_main_#t~mem12#1_43| (select (select |#memory_int_31| |ULTIMATE.start_main_~#A~0#1.base_1|) (+ |ULTIMATE.start_main_~#A~0#1.offset_1| (* (mod |ULTIMATE.start_main_~i~0#1_42| 4294967296) 4)))))
(assert (>= |ULTIMATE.start_main_#t~mem12#1_43| (select (select |#memory_int_31| |ULTIMATE.start_main_~#A~0#1.base_1|) (+ |ULTIMATE.start_main_~#A~0#1.offset_1| (* (mod |ULTIMATE.start_main_~i~0#1_42| 4294967296) 4)))))
(assert (<= |ULTIMATE.start___VERIFIER_assert_~cond#1_43| |ULTIMATE.start___VERIFIER_assert_#in~cond#1_43|))
(assert (>= |ULTIMATE.start___VERIFIER_assert_~cond#1_43| |ULTIMATE.start___VERIFIER_assert_#in~cond#1_43|))
(assert (<= |ULTIMATE.start_main_~i~0#1_28| (+ |ULTIMATE.start_main_~i~0#1_26| 1)))
(assert (>= |ULTIMATE.start_main_~i~0#1_28| (+ |ULTIMATE.start_main_~i~0#1_26| 1)))
(assert (= v_ArrVal_290_fresh_1 (store (select |#memory_int_29| |ULTIMATE.start_main_~#C~0#1.base_1|) (+ (* 4 (mod |ULTIMATE.start_main_~i~0#1_30| 4294967296)) |ULTIMATE.start_main_~#C~0#1.offset_1|) v_ArrVal_289_fresh_1)))
(assert (<= v_ArrVal_289_fresh_1 (let ((.cse0 (* 4 (mod |ULTIMATE.start_main_~i~0#1_30| 4294967296)))) (+ (select (select |#memory_int_29| |ULTIMATE.start_main_~#A~0#1.base_1|) (+ |ULTIMATE.start_main_~#A~0#1.offset_1| .cse0)) (select (select |#memory_int_29| |ULTIMATE.start_main_~#B~0#1.base_1|) (+ .cse0 |ULTIMATE.start_main_~#B~0#1.offset_1|))))))
(assert (>= v_ArrVal_289_fresh_1 (let ((.cse0 (* 4 (mod |ULTIMATE.start_main_~i~0#1_30| 4294967296)))) (+ (select (select |#memory_int_29| |ULTIMATE.start_main_~#A~0#1.base_1|) (+ |ULTIMATE.start_main_~#A~0#1.offset_1| .cse0)) (select (select |#memory_int_29| |ULTIMATE.start_main_~#B~0#1.base_1|) (+ .cse0 |ULTIMATE.start_main_~#B~0#1.offset_1|))))))
(assert (= (store |#memory_int_29| |ULTIMATE.start_main_~#C~0#1.base_1| v_ArrVal_290_fresh_1) |#memory_int_31|))
(assert (< (mod |ULTIMATE.start_main_~i~0#1_30| 4294967296) (mod |ULTIMATE.start_main_~M~0#1_1| 4294967296)))
(assert (<= 0 (+ |v_ULTIMATE.start_main_#t~nondet6#1_40_fresh_1| 2147483648)))
(assert (= v_ArrVal_280_fresh_1 (store (select |#memory_int_11| |ULTIMATE.start_main_~#B~0#1.base_1|) (+ (* (mod |ULTIMATE.start_main_~i~0#1_15| 4294967296) 4) |ULTIMATE.start_main_~#B~0#1.offset_1|) v_ArrVal_279_fresh_1)))
(assert (<= |v_ULTIMATE.start_main_#t~nondet6#1_40_fresh_1| 2147483647))
(assert (< (mod |ULTIMATE.start_main_~i~0#1_15| 4294967296) (mod |ULTIMATE.start_main_~M~0#1_1| 4294967296)))
(assert (= (store |#memory_int_11| |ULTIMATE.start_main_~#B~0#1.base_1| v_ArrVal_280_fresh_1) |#memory_int_16|))
(assert (<= v_ArrVal_279_fresh_1 |v_ULTIMATE.start_main_#t~nondet6#1_40_fresh_1|))
(assert (>= v_ArrVal_279_fresh_1 |v_ULTIMATE.start_main_#t~nondet6#1_40_fresh_1|))
(assert (<= |ULTIMATE.start_main_#t~mem7#1_16| (select (select |#memory_int_16| |ULTIMATE.start_main_~#B~0#1.base_1|) (+ (* (mod |ULTIMATE.start_main_~i~0#1_15| 4294967296) 4) |ULTIMATE.start_main_~#B~0#1.offset_1|))))
(assert (>= |ULTIMATE.start_main_#t~mem7#1_16| (select (select |#memory_int_16| |ULTIMATE.start_main_~#B~0#1.base_1|) (+ (* (mod |ULTIMATE.start_main_~i~0#1_15| 4294967296) 4) |ULTIMATE.start_main_~#B~0#1.offset_1|))))
(assert (<= |ULTIMATE.start_main_~i~0#1_32| (+ |ULTIMATE.start_main_~i~0#1_30| 1)))
(assert (>= |ULTIMATE.start_main_~i~0#1_32| (+ |ULTIMATE.start_main_~i~0#1_30| 1)))
(assert (= v_ArrVal_272_fresh_1 (store (select |#memory_int_-1| |ULTIMATE.start_main_~#A~0#1.base_1|) (+ |ULTIMATE.start_main_~#A~0#1.offset_1| (* (mod |ULTIMATE.start_main_~i~0#1_1| 4294967296) 4)) v_ArrVal_271_fresh_1)))
(assert (<= |v_ULTIMATE.start_main_#t~nondet3#1_41_fresh_1| 2147483647))
(assert (= (store |#memory_int_-1| |ULTIMATE.start_main_~#A~0#1.base_1| v_ArrVal_272_fresh_1) |#memory_int_2|))
(assert (<= |ULTIMATE.start_main_#t~mem4#1_2| (select (select |#memory_int_2| |ULTIMATE.start_main_~#A~0#1.base_1|) (+ |ULTIMATE.start_main_~#A~0#1.offset_1| (* (mod |ULTIMATE.start_main_~i~0#1_1| 4294967296) 4)))))
(assert (>= |ULTIMATE.start_main_#t~mem4#1_2| (select (select |#memory_int_2| |ULTIMATE.start_main_~#A~0#1.base_1|) (+ |ULTIMATE.start_main_~#A~0#1.offset_1| (* (mod |ULTIMATE.start_main_~i~0#1_1| 4294967296) 4)))))
(assert (<= v_ArrVal_271_fresh_1 |v_ULTIMATE.start_main_#t~nondet3#1_41_fresh_1|))
(assert (>= v_ArrVal_271_fresh_1 |v_ULTIMATE.start_main_#t~nondet3#1_41_fresh_1|))
(assert (< (mod |ULTIMATE.start_main_~i~0#1_1| 4294967296) (mod |ULTIMATE.start_main_~M~0#1_1| 4294967296)))
(assert (<= 0 (+ |v_ULTIMATE.start_main_#t~nondet3#1_41_fresh_1| 2147483648)))
(assert (<= (select (select |#memory_int_31| |ULTIMATE.start_main_~#B~0#1.base_1|) (+ (* (mod |ULTIMATE.start_main_~i~0#1_34| 4294967296) 4) |ULTIMATE.start_main_~#B~0#1.offset_1|)) |ULTIMATE.start_main_#t~mem13#1_35|))
(assert (>= (select (select |#memory_int_31| |ULTIMATE.start_main_~#B~0#1.base_1|) (+ (* (mod |ULTIMATE.start_main_~i~0#1_34| 4294967296) 4) |ULTIMATE.start_main_~#B~0#1.offset_1|)) |ULTIMATE.start_main_#t~mem13#1_35|))
(assert (< (mod |ULTIMATE.start_main_~i~0#1_34| 4294967296) (mod |ULTIMATE.start_main_~M~0#1_1| 4294967296)))
(assert (<= |ULTIMATE.start_main_#t~mem14#1_35| (select (select |#memory_int_31| |ULTIMATE.start_main_~#C~0#1.base_1|) (+ |ULTIMATE.start_main_~#C~0#1.offset_1| (* (mod |ULTIMATE.start_main_~i~0#1_34| 4294967296) 4)))))
(assert (>= |ULTIMATE.start_main_#t~mem14#1_35| (select (select |#memory_int_31| |ULTIMATE.start_main_~#C~0#1.base_1|) (+ |ULTIMATE.start_main_~#C~0#1.offset_1| (* (mod |ULTIMATE.start_main_~i~0#1_34| 4294967296) 4)))))
(assert (<= |ULTIMATE.start___VERIFIER_assert_#in~cond#1_35| (ite (= (+ |ULTIMATE.start_main_#t~mem12#1_35| |ULTIMATE.start_main_#t~mem13#1_35|) |ULTIMATE.start_main_#t~mem14#1_35|) 1 0)))
(assert (>= |ULTIMATE.start___VERIFIER_assert_#in~cond#1_35| (ite (= (+ |ULTIMATE.start_main_#t~mem12#1_35| |ULTIMATE.start_main_#t~mem13#1_35|) |ULTIMATE.start_main_#t~mem14#1_35|) 1 0)))
(assert (<= |ULTIMATE.start_main_#t~mem12#1_35| (select (select |#memory_int_31| |ULTIMATE.start_main_~#A~0#1.base_1|) (+ |ULTIMATE.start_main_~#A~0#1.offset_1| (* (mod |ULTIMATE.start_main_~i~0#1_34| 4294967296) 4)))))
(assert (>= |ULTIMATE.start_main_#t~mem12#1_35| (select (select |#memory_int_31| |ULTIMATE.start_main_~#A~0#1.base_1|) (+ |ULTIMATE.start_main_~#A~0#1.offset_1| (* (mod |ULTIMATE.start_main_~i~0#1_34| 4294967296) 4)))))
(assert (<= |ULTIMATE.start___VERIFIER_assert_~cond#1_35| |ULTIMATE.start___VERIFIER_assert_#in~cond#1_35|))
(assert (>= |ULTIMATE.start___VERIFIER_assert_~cond#1_35| |ULTIMATE.start___VERIFIER_assert_#in~cond#1_35|))
(assert (<= |ULTIMATE.start_main_#t~mem7#1_22| 1000000))
(assert (<= |ULTIMATE.start_main_~i~0#1_24| (+ |ULTIMATE.start_main_~i~0#1_21| 1)))
(assert (>= |ULTIMATE.start_main_~i~0#1_24| (+ |ULTIMATE.start_main_~i~0#1_21| 1)))
(assert (= (store |#memory_int_22| |ULTIMATE.start_main_~#C~0#1.base_1| v_ArrVal_286_fresh_1) |#memory_int_27|))
(assert (= v_ArrVal_286_fresh_1 (store (select |#memory_int_22| |ULTIMATE.start_main_~#C~0#1.base_1|) (+ (* 4 (mod |ULTIMATE.start_main_~i~0#1_26| 4294967296)) |ULTIMATE.start_main_~#C~0#1.offset_1|) v_ArrVal_285_fresh_1)))
(assert (<= v_ArrVal_285_fresh_1 (let ((.cse0 (* 4 (mod |ULTIMATE.start_main_~i~0#1_26| 4294967296)))) (+ (select (select |#memory_int_22| |ULTIMATE.start_main_~#A~0#1.base_1|) (+ |ULTIMATE.start_main_~#A~0#1.offset_1| .cse0)) (select (select |#memory_int_22| |ULTIMATE.start_main_~#B~0#1.base_1|) (+ .cse0 |ULTIMATE.start_main_~#B~0#1.offset_1|))))))
(assert (>= v_ArrVal_285_fresh_1 (let ((.cse0 (* 4 (mod |ULTIMATE.start_main_~i~0#1_26| 4294967296)))) (+ (select (select |#memory_int_22| |ULTIMATE.start_main_~#A~0#1.base_1|) (+ |ULTIMATE.start_main_~#A~0#1.offset_1| .cse0)) (select (select |#memory_int_22| |ULTIMATE.start_main_~#B~0#1.base_1|) (+ .cse0 |ULTIMATE.start_main_~#B~0#1.offset_1|))))))
(assert (< (mod |ULTIMATE.start_main_~i~0#1_26| 4294967296) (mod |ULTIMATE.start_main_~M~0#1_1| 4294967296)))
(assert (<= |ULTIMATE.start_main_#t~mem4#1_11| 1000000))
(assert (not (= |ULTIMATE.start___VERIFIER_assert_~cond#1_43| 0)))
(assert (<= |ULTIMATE.start_main_~i~0#1_13| (+ |ULTIMATE.start_main_~i~0#1_10| 1)))
(assert (>= |ULTIMATE.start_main_~i~0#1_13| (+ |ULTIMATE.start_main_~i~0#1_10| 1)))
(assert (<= (+ |ULTIMATE.start_main_~i~0#1_42| 1) |ULTIMATE.start_main_~i~0#1_46|))
(assert (>= (+ |ULTIMATE.start_main_~i~0#1_42| 1) |ULTIMATE.start_main_~i~0#1_46|))
(check-sat)
(exit)
